100
1000
200
200
200
200
199
199
199
198
197
197
196
195
194
192
192
191
191
191
190
190
190
189
189
189
189
189
189
188
187
186
186
185
184
184
184
184
184
183
183
183
182
181
181
181
181
181
180
180
179
179
178
178
177
177
176
176
174
174
174
173
173
172
172
171
171
170
170
166
166
165
165
164
164
163
163
162
162
162
161
161
161
160
160
160
160
159
158
158
157
156
155
153
153
152
152
151
151
150
150
150
